54
75
60	6
59	9
58	6
57	11
56	5
55	11
54	9
53	9
52	13
51	11
50	13
49	9
48	8
47	9
46	4
45	10
44	10
43	9
42	8
41	13
40	7
39	9
38	16
37	5
36	7
35	9
34	13
33	6
32	9
31	6
30	11
29	8
28	5
27	9
26	13
25	12
24	15
23	5
22	6
21	8
20	9
19	9
18	6
17	8
16	14
15	15
14	8
13	12
12	12
11	5
10	12
9	14
8	7
7	7
